loop__main__1394:
(set-info :source |printed by MathSAT|)
(declare-fun |main::nlen| () (_ BitVec 32))
(assert (let ((.def_86 ((_ extract 31 31) |main::nlen|)))(let ((.def_87 (= .def_86 (_ bv1 1))))(let ((.def_91 (not .def_87))).def_91))))
